6
58 27210 27234 27226 27221 27194 27188 27163 27153 27148 27140 27177 27175 27165 27173 27197 27184 27178 27171 27139 27055 26990 26983 26904 26889 26866 26841 26908 26894 26874 26875 26876 26879 26886 26882 26887 26899 26960 26973 27019 26998 27040 26971 26918 26910 26902 26883 26851 26850 26872 26871 26860 26855 26847 26838 26828 26820 26817 26816
2 27040 27125
2 27377 27210
3 26838 26828 26804
4 26820 26810 26808 26805
3 26817 26816 26814
16